************************************************************************
file with basedata            : 
initial value random generator: 
************************************************************************
projects                      :  1
jobs (incl. supersource/sink ):  52
horizon                       :  250
RESOURCES
  - renewable                 :  4   R
  - nonrenewable              :  0   N
  - doubly constrained        :  0   D
************************************************************************
PROJECT INFORMATION:
pronr.  #jobs rel.date duedate tardcost  MPM-Time
	1     50      0       10        1       10
************************************************************************
PRECEDENCE RELATIONS:
jobnr.    #modes  #successors   successors
   1        1         10           2   3   4   5   6   7   8   9  10  11 
   2        1          9          12  13  14  15  16  17  18  19  20 
   3        1          8          21  22  23  24  25  26  27  28 
   4        1          6          29  30  31  32  33  34 
   5        1          3          35  36  37 
   6        1          3          39  40  41 
   7        1          2          43  44 
   8        1          3          45  46  47 
   9        1          2          49  50 
  10        1          1          51 
  11        1          1          52 
  12        1          8          21  22  23  24  25  26  27  28 
  13        1          6          29  30  31  32  33  34 
  14        1          3          35  36  37 
  15        1          3          39  40  41 
  16        1          2          43  44 
  17        1          3          45  46  47 
  18        1          2          49  50 
  19        1          1          51 
  20        1          1          52 
  21        1          6          29  30  31  32  33  34 
  22        1          3          35  36  37 
  23        1          3          39  40  41 
  24        1          2          43  44 
  25        1          3          45  46  47 
  26        1          2          49  50 
  27        1          1          51 
  28        1          1          52 
  29        1          3          35  36  37 
  30        1          3          39  40  41 
  31        1          2          43  44 
  32        1          3          45  46  47 
  33        1          2          49  50 
  34        1          1          52 
  35        1          1          38 
  36        1          3          39  40  41 
  37        1          1          52 
  38        1          3          39  40  41 
  39        1          1          42 
  40        1          2          43  44 
  41        1          1          52 
  42        1          2          43  44 
  43        1          3          45  46  47 
  44        1          1          52 
  45        1          1          48 
  46        1          2          49  50 
  47        1          1          52 
  48        1          2          49  50 
  49        1          1          51 
  50        1          1          52 
  51        1          1          52 
  52        1          0         
************************************************************************
REQUESTS/DURATIONS:
jobnr. mode duration  R 1  R 2  R 3  R 4
------------------------------------------------------------------------
  1      1     0       0    0    0    0
  2      1     5       3    3    4    0
  3      1     9       3    1    0    7
  4      1     3       0    0    8    0
  5      1     6       0    2    4    6
  6      1     8      10    0    0    3
  7      1     6       4    0    5    0
  8      1     3       3    0    6    3
  9      1     3       0    0    0    0
 10      1     5       6    0    0    0
 11      1     6       0    0    0    9
 12      1    10       0   10    0    5
 13      1     2       0    4    7    0
 14      1    10       0    0    0    0
 15      1     7       5    0    5    2
 16      1     1       0    0   10    1
 17      1    10       0    8    0    0
 18      1    10       0    0    5    9
 19      1     2       0    0    0    1
 20      1     9       9    0    0    0
 21      1     4       2    9    4    0
 22      1     1       4    0    0    3
 23      1     1       4    0    0   10
 24      1     7       1    0    0    8
 25      1    10       7    0    0    0
 26      1    10       0    6    0    0
 27      1     5       5    0    0    4
 28      1     8       0    0   10    0
 29      1     1       0    8    0    3
 30      1     9       6    0    0    0
 31      1     6       5    1    2   10
 32      1     6       8    4    6    0
 33      1     1       8    6    8    0
 34      1     4       3    0    6    5
 35      1     1       1    0    0    3
 36      1     1       9    0    8    0
 37      1    10       4    0    0    0
 38      1    10       0    3    5    5
 39      1     5       7    3    0    0
 40      1    10       0    0    0    0
 41      1     5       0    0    0    0
 42      1     2       2    4   10    0
 43      1     7       6    2    0    0
 44      1     3       2    3    7    4
 45      1     6       7    0    0    0
 46      1     2       0    4    0    1
 47      1     3       0    0    1    0
 48      1     5       0    0    0    1
 49      1     3       4    1    2    5
 50      1     8       0    0    0    0
 51      1     6       9    0   10    0
 52      1     0       0    0    0    0
************************************************************************
RESOURCEAVAILABILITIES:
  R 1  R 2  R 3  R 4
   19   11   12   18
************************************************************************
